System = AIMD with PBE-D3         

ENCUT = 500                        
EDIFF = 1E-4                        
ISMEAR = 0                          
SIGMA = 0.05                        
PREC = Normal                      
LREAL = Auto  
ISYM = 0
NELMIN = 5
NELM = 300                
                        
NSW = 1000                         
POTIM = 1                                               
TEBEG = 300                         
TEEND = 300                         
SMASS = 0  
MDALGO = 2               

GGA = PE                          
IVDW = 11                           

LWAVE = .FALSE.                     
LCHARG = .FALSE.                    
LVTOT = .FALSE.             
