POSCAR file written by OVITO Basic 3.14.1
1
18.3861820533 0.0 0.0
0.0 17.33465868 0.0
0.0 0.0 100.0
Li C O H N S F 
292 140 86 350 4 8 8 
Direct
0.0 0.0 0.01532
0.0833234434 0.1250096722 0.0
0.2500247189 0.1250096722 0.0
0.1666468868 0.0 0.01532
0.1666468868 0.0 0.04597
0.2500247189 0.1250096722 0.03064
0.0833234434 0.1250096722 0.03064
0.3333481623 0.0 0.04597
0.0 0.0 0.07661
0.0833234434 0.1250096722 0.06129
0.2500247189 0.1250096722 0.06129
0.1666468868 0.0 0.07661
0.1666468868 0.0 0.10725
0.2500247189 0.1250096722 0.09193
0.0833234434 0.1250096722 0.09193
0.0 0.0 0.10725
0.0 0.0 0.1379
0.0833234434 0.1250096722 0.12257
0.2500247189 0.1250096722 0.12257
0.1666468868 0.0 0.1379
0.1666468868 0.0 0.16854
0.2500247189 0.1250096722 0.15322
0.0833234434 0.1250096722 0.15322
0.0 0.0 0.16854
0.0 0.2500193445 0.01532
0.0833234434 0.3749713288 0.0
0.2500247189 0.3749713288 0.0
0.1666468868 0.2500193445 0.01532
0.1666468868 0.2500193445 0.04597
0.2500247189 0.3749713288 0.03064
0.0833234434 0.3749713288 0.03064
0.3333481623 0.2500193445 0.04597
0.0 0.2500193445 0.07661
0.0833234434 0.3749713288 0.06129
0.2500247189 0.3749713288 0.06129
0.1666468868 0.2500193445 0.07661
0.1666468868 0.2500193445 0.10725
0.2500247189 0.3749713288 0.09193
0.0833234434 0.3749713288 0.09193
0.0 0.2500193445 0.10725
0.0 0.2500193445 0.1379
0.0833234434 0.3749713288 0.12257
0.2500247189 0.3749713288 0.12257
0.1666468868 0.2500193445 0.1379
0.1666468868 0.2500193445 0.16854
0.2500247189 0.3749713288 0.15322
0.0833234434 0.3749713288 0.15322
0.0 0.2500193445 0.16854
0.0 0.4999810011 0.01532
0.0833234434 0.6249906733 0.0
0.2500247189 0.6249906733 0.0
0.1666468868 0.4999810011 0.01532
0.1666468868 0.4999810011 0.04597
0.2500247189 0.6249906733 0.03064
0.0833234434 0.6249906733 0.03064
0.3333481623 0.4999810011 0.04597
0.0 0.4999810011 0.07661
0.0833234434 0.6249906733 0.06129
0.2500247189 0.6249906733 0.06129
0.1666468868 0.4999810011 0.07661
0.1666468868 0.4999810011 0.10725
0.2500247189 0.6249906733 0.09193
0.0833234434 0.6249906733 0.09193
0.0 0.4999810011 0.10725
0.0 0.4999810011 0.1379
0.0833234434 0.6249906733 0.12257
0.2500247189 0.6249906733 0.12257
0.1666468868 0.4999810011 0.1379
0.1666468868 0.4999810011 0.16854
0.2500247189 0.6249906733 0.15322
0.0833234434 0.6249906733 0.15322
0.0 0.4999810011 0.16854
0.0 0.7500003456 0.01532
0.0833234434 0.8750100178 0.0
0.2500247189 0.8750100178 0.0
0.1666468868 0.7500003456 0.01532
0.1666468868 0.7500003456 0.04597
0.2500247189 0.8750100178 0.03064
0.0833234434 0.8750100178 0.03064
0.3333481623 0.7500003456 0.04597
0.0 0.7500003456 0.07661
0.0833234434 0.8750100178 0.06129
0.2500247189 0.8750100178 0.06129
0.1666468868 0.7500003456 0.07661
0.1666468868 0.7500003456 0.10725
0.2500247189 0.8750100178 0.09193
0.0833234434 0.8750100178 0.09193
0.0 0.7500003456 0.10725
0.0 0.7500003456 0.1379
0.0833234434 0.8750100178 0.12257
0.2500247189 0.8750100178 0.12257
0.1666468868 0.7500003456 0.1379
0.1666468868 0.7500003456 0.16854
0.2500247189 0.8750100178 0.15322
0.0833234434 0.8750100178 0.15322
0.0 0.7500003456 0.16854
0.3333481623 0.0 0.01532
0.4166716058 0.1250096722 0.0
0.5833184926 0.1250096722 0.0
0.4999950492 0.0 0.01532
0.4999950492 0.0 0.04597
0.5833184926 0.1250096722 0.03064
0.4166716058 0.1250096722 0.03064
0.666641936 0.0 0.04597
0.3333481623 0.0 0.07661
0.4166716058 0.1250096722 0.06129
0.5833184926 0.1250096722 0.06129
0.4999950492 0.0 0.07661
0.4999950492 0.0 0.10725
0.5833184926 0.1250096722 0.09193
0.4166716058 0.1250096722 0.09193
0.3333481623 0.0 0.10725
0.3333481623 0.0 0.1379
0.4166716058 0.1250096722 0.12257
0.5833184926 0.1250096722 0.12257
0.4999950492 0.0 0.1379
0.4999950492 0.0 0.16854
0.5833184926 0.1250096722 0.15322
0.4166716058 0.1250096722 0.15322
0.3333481623 0.0 0.16854
0.3333481623 0.2500193445 0.01532
0.4166716058 0.3749713288 0.0
0.5833184926 0.3749713288 0.0
0.4999950492 0.2500193445 0.01532
0.4999950492 0.2500193445 0.04597
0.5833184926 0.3749713288 0.03064
0.4166716058 0.3749713288 0.03064
0.666641936 0.2500193445 0.04597
0.3333481623 0.2500193445 0.07661
0.4166716058 0.3749713288 0.06129
0.5833184926 0.3749713288 0.06129
0.4999950492 0.2500193445 0.07661
0.4999950492 0.2500193445 0.10725
0.5833184926 0.3749713288 0.09193
0.4166716058 0.3749713288 0.09193
0.3333481623 0.2500193445 0.10725
0.3333481623 0.2500193445 0.1379
0.4166716058 0.3749713288 0.12257
0.5833184926 0.3749713288 0.12257
0.4999950492 0.2500193445 0.1379
0.4999950492 0.2500193445 0.16854
0.5833184926 0.3749713288 0.15322
0.4166716058 0.3749713288 0.15322
0.3333481623 0.2500193445 0.16854
0.3333481623 0.4999810011 0.01532
0.4166716058 0.6249906733 0.0
0.5833184926 0.6249906733 0.0
0.4999950492 0.4999810011 0.01532
0.4999950492 0.4999810011 0.04597
0.5833184926 0.6249906733 0.03064
0.4166716058 0.6249906733 0.03064
0.666641936 0.4999810011 0.04597
0.3333481623 0.4999810011 0.07661
0.4166716058 0.6249906733 0.06129
0.5833184926 0.6249906733 0.06129
0.4999950492 0.4999810011 0.07661
0.4999950492 0.4999810011 0.10725
0.5833184926 0.6249906733 0.09193
0.4166716058 0.6249906733 0.09193
0.3333481623 0.4999810011 0.10725
0.3333481623 0.4999810011 0.1379
0.4166716058 0.6249906733 0.12257
0.5833184926 0.6249906733 0.12257
0.4999950492 0.4999810011 0.1379
0.4999950492 0.4999810011 0.16854
0.5833184926 0.6249906733 0.15322
0.4166716058 0.6249906733 0.15322
0.3333481623 0.4999810011 0.16854
0.3333481623 0.7500003456 0.01532
0.4166716058 0.8750100178 0.0
0.5833184926 0.8750100178 0.0
0.4999950492 0.7500003456 0.01532
0.4999950492 0.7500003456 0.04597
0.5833184926 0.8750100178 0.03064
0.4166716058 0.8750100178 0.03064
0.666641936 0.7500003456 0.04597
0.3333481623 0.7500003456 0.07661
0.4166716058 0.8750100178 0.06129
0.5833184926 0.8750100178 0.06129
0.4999950492 0.7500003456 0.07661
0.4999950492 0.7500003456 0.10725
0.5833184926 0.8750100178 0.09193
0.4166716058 0.8750100178 0.09193
0.3333481623 0.7500003456 0.10725
0.3333481623 0.7500003456 0.1379
0.4166716058 0.8750100178 0.12257
0.5833184926 0.8750100178 0.12257
0.4999950492 0.7500003456 0.1379
0.4999950492 0.7500003456 0.16854
0.5833184926 0.8750100178 0.15322
0.4166716058 0.8750100178 0.15322
0.3333481623 0.7500003456 0.16854
0.666641936 0.0 0.01532
0.7500197681 0.1250096722 0.0
0.9166666549 0.1250096722 0.0
0.8333432115 0.0 0.01532
0.8333432115 0.0 0.04597
0.9166666549 0.1250096722 0.03064
0.7500197681 0.1250096722 0.03064
0.9999900984 0.0 0.04597
0.666641936 0.0 0.07661
0.7500197681 0.1250096722 0.06129
0.9166666549 0.1250096722 0.06129
0.8333432115 0.0 0.07661
0.8333432115 0.0 0.10725
0.9166666549 0.1250096722 0.09193
0.7500197681 0.1250096722 0.09193
0.666641936 0.0 0.10725
0.666641936 0.0 0.1379
0.7500197681 0.1250096722 0.12257
0.9166666549 0.1250096722 0.12257
0.8333432115 0.0 0.1379
0.8333432115 0.0 0.16854
0.9166666549 0.1250096722 0.15322
0.7500197681 0.1250096722 0.15322
0.666641936 0.0 0.16854
0.666641936 0.2500193445 0.01532
0.7500197681 0.3749713288 0.0
0.9166666549 0.3749713288 0.0
0.8333432115 0.2500193445 0.01532
0.8333432115 0.2500193445 0.04597
0.9166666549 0.3749713288 0.03064
0.7500197681 0.3749713288 0.03064
0.9999900984 0.2500193445 0.04597
0.666641936 0.2500193445 0.07661
0.7500197681 0.3749713288 0.06129
0.9166666549 0.3749713288 0.06129
0.8333432115 0.2500193445 0.07661
0.8333432115 0.2500193445 0.10725
0.9166666549 0.3749713288 0.09193
0.7500197681 0.3749713288 0.09193
0.666641936 0.2500193445 0.10725
0.666641936 0.2500193445 0.1379
0.7500197681 0.3749713288 0.12257
0.9166666549 0.3749713288 0.12257
0.8333432115 0.2500193445 0.1379
0.8333432115 0.2500193445 0.16854
0.9166666549 0.3749713288 0.15322
0.7500197681 0.3749713288 0.15322
0.666641936 0.2500193445 0.16854
0.666641936 0.4999810011 0.01532
0.7500197681 0.6249906733 0.0
0.9166666549 0.6249906733 0.0
0.8333432115 0.4999810011 0.01532
0.8333432115 0.4999810011 0.04597
0.9166666549 0.6249906733 0.03064
0.7500197681 0.6249906733 0.03064
0.9999900984 0.4999810011 0.04597
0.666641936 0.4999810011 0.07661
0.7500197681 0.6249906733 0.06129
0.9166666549 0.6249906733 0.06129
0.8333432115 0.4999810011 0.07661
0.8333432115 0.4999810011 0.10725
0.9166666549 0.6249906733 0.09193
0.7500197681 0.6249906733 0.09193
0.666641936 0.4999810011 0.10725
0.666641936 0.4999810011 0.1379
0.7500197681 0.6249906733 0.12257
0.9166666549 0.6249906733 0.12257
0.8333432115 0.4999810011 0.1379
0.8333432115 0.4999810011 0.16854
0.9166666549 0.6249906733 0.15322
0.7500197681 0.6249906733 0.15322
0.666641936 0.4999810011 0.16854
0.666641936 0.7500003456 0.01532
0.7500197681 0.8750100178 0.0
0.9166666549 0.8750100178 0.0
0.8333432115 0.7500003456 0.01532
0.8333432115 0.7500003456 0.04597
0.9166666549 0.8750100178 0.03064
0.7500197681 0.8750100178 0.03064
0.9999900984 0.7500003456 0.04597
0.666641936 0.7500003456 0.07661
0.7500197681 0.8750100178 0.06129
0.9166666549 0.8750100178 0.06129
0.8333432115 0.7500003456 0.07661
0.8333432115 0.7500003456 0.10725
0.9166666549 0.8750100178 0.09193
0.7500197681 0.8750100178 0.09193
0.666641936 0.7500003456 0.10725
0.666641936 0.7500003456 0.1379
0.7500197681 0.8750100178 0.12257
0.9166666549 0.8750100178 0.12257
0.8333432115 0.7500003456 0.1379
0.8333432115 0.7500003456 0.16854
0.9166666549 0.8750100178 0.15322
0.7500197681 0.8750100178 0.15322
0.666641936 0.7500003456 0.16854
0.6165499704 0.6428542313 0.27622
0.6697519919 0.0352473049 0.22688
0.030937252 0.4060651052 0.30317
0.5098937872 0.2047920334 0.27186
0.3998655065 0.3471854526 0.32775
0.3014764014 0.2886322374 0.34006
0.2337625064 0.2387898947 0.33672
0.2843983588 0.1215104006 0.32814
0.5358371831 0.3136490946 0.29661
0.4176506018 0.2800747387 0.28971
0.4020410534 0.3267442472 0.27649
0.4040534342 0.320687018 0.25248
0.9517671508 0.8572421456 0.41609
0.9837476891 0.7684604725 0.43284
0.0585321112 0.7337900466 0.43048
0.1356008575 0.6780058504 0.41366
0.3339464377 0.5984922387 0.37544
0.3242108657 0.6102028817 0.39829
0.3684832436 0.6534688043 0.4097
0.4562121693 0.7645180055 0.41117
0.9837278858 0.532978478 0.28383
0.0678671593 0.5685719103 0.30073
0.1238874901 0.5324592869 0.31066
0.1288368591 0.4342167988 0.32755
0.6910970345 0.0275945047 0.3679
0.7464647012 0.9538693726 0.38515
0.7328675336 0.9104303864 0.39807
0.7056188096 0.9314864687 0.42068
0.6820339298 0.4651178214 0.27706
0.7230973761 0.5594952205 0.29322
0.7096089858 0.6361047473 0.30043
0.643526751 0.7529804261 0.2972
0.734637676 0.0059418534 0.25497
0.7603091285 0.1292785766 0.2439
0.7730904661 0.1650450726 0.23032
0.734964008 0.1623337414 0.20858
0.9000781104 0.3334937311 0.28622
0.0154364808 0.2803054903 0.28159
0.0970194868 0.3047074706 0.28186
0.1971490294 0.3593379088 0.29516
0.9929393745 0.9992500573 0.38896
0.9110844251 0.1087993733 0.38659
0.9407806393 0.1630259962 0.3754
0.0518423048 0.1963696005 0.36456
0.3943079605 0.852569426 0.37279
0.3034244919 0.845300751 0.35492
0.278623258 0.8815287501 0.34137
0.1733267917 0.8907588136 0.32726
0.7398490867 0.5272476862 0.19713
0.7040069527 0.4509842867 0.21628
0.6316156321 0.4058146636 0.21312
0.5687423289 0.3595489704 0.19336
0.6284067006 0.737961883 0.39078
0.6439074717 0.6950420878 0.36847
0.70248407 0.7068104187 0.35822
0.8136001241 0.6520069168 0.35141
0.8741990048 0.1666209536 0.43334
0.9419672884 0.2863810273 0.43363
0.0124550056 0.3169556125 0.43874
0.0413897784 0.3404345865 0.46279
0.2295646771 0.2681516519 0.37818
0.3401368445 0.2061948508 0.37319
0.3984414995 0.2648057539 0.37746
0.4716486501 0.3726821208 0.37035
0.379306589 0.1042997173 0.26601
0.4907489752 0.0469579479 0.27374
0.556668044 0.0691101003 0.2822
0.6578309714 0.1562765123 0.28281
0.402451479 0.356933325 0.44899
0.5049197344 0.3695092865 0.46345
0.5887870646 0.3749896367 0.46407
0.6826619101 0.4739820675 0.46299
0.4940567824 0.0393811434 0.40509
0.3849531091 0.0661483275 0.41818
0.3046754313 0.0384581371 0.41731
0.2118883592 0.0273820609 0.40008
0.7933774402 0.5204785122 0.43285
0.844611568 0.4754242649 0.41311
0.9212995936 0.4805007998 0.40581
0.0458496493 0.4648096919 0.40952
0.6497913498 0.9812120535 0.30921
0.5517285766 0.9962685945 0.32454
0.529701165 0.9156209149 0.32878
0.4896167147 0.7959762171 0.32001
0.6904097851 0.7808816781 0.47741
0.675724844 0.8268589318 0.45618
0.6064336776 0.8261089892 0.44743
0.6344982317 0.7028876417 0.43653
0.3660802404 0.9846550195 0.22693
0.2923835917 0.8861240918 0.21819
0.2437057315 0.8629335573 0.20661
0.1303597419 0.8889507988 0.19617
0.2680619543 0.8035347137 0.44265
0.2813871786 0.6786981052 0.45219
0.2519629078 0.5958582855 0.45256
0.2161751625 0.4932315171 0.43908
0.830460612 0.95529188 0.22255
0.7322346728 0.9339473582 0.20734
0.6667507134 0.9742135102 0.20058
0.5538398331 0.0397469609 0.20364
0.0254439962 0.8317244052 0.28656
0.1098552131 0.7634796234 0.27214
0.1180679023 0.680985931 0.2669
0.0683566574 0.5929542006 0.25015
0.935440648 0.3788167279 0.24146
0.0120742849 0.4322934082 0.22468
0.0043510937 0.4780399103 0.21129
0.9870011077 0.5893198631 0.19771
0.1802786399 0.5698987319 0.21689
0.2608826498 0.4947890904 0.22969
0.3160327618 0.4679065305 0.21922
0.3232120663 0.3649913227 0.20428
0.1486986255 0.9906728686 0.44745
0.1371138387 0.1257779227 0.44393
0.1890006305 0.1947726472 0.44205
0.2643289393 0.1647749409 0.46057
0.8709257829 0.4425815438 0.3673
0.9788872942 0.5168835548 0.36315
0.0181559144 0.5845514577 0.37089
0.9794311809 0.6876397292 0.38438
0.5589523682 0.0056337238 0.47111
0.5609103603 0.1304126445 0.46099
0.6425477549 0.1473151982 0.46112
0.7569271293 0.1215287084 0.46944
0.9162760326 0.0818591255 0.32941
0.876409137 0.0146527258 0.34823
0.862540026 0.9269671227 0.34464
0.7826974575 0.8429158572 0.33189
0.4996143285 0.5512458512 0.25846
0.6037142441 0.5980884234 0.24629
0.6897027324 0.6219135247 0.2485
0.7779755448 0.6857163385 0.26394
0.9829120558 0.0621875527 0.25193
0.0392043299 0.1791209194 0.2425
0.1102903224 0.142489105 0.23704
0.1910031096 0.0298823305 0.23936
0.4299424414 0.6455078745 0.20029
0.4525681284 0.6637372499 0.22321
0.4239596876 0.711156701 0.23546
0.3313901702 0.6894083639 0.25189
0.6094794432 0.5649178828 0.33359
0.6200308453 0.4242171026 0.33504
0.6671314341 0.3554531297 0.32945
0.7016682399 0.2251938589 0.33491
0.3231230923 0.3250333003 0.32797
0.2431717464 0.188312985 0.32537
0.4894980357 0.2548651278 0.29116
0.4306494941 0.2873434137 0.26537
0.9764596072 0.8455315026 0.42918
0.0626656502 0.7081189325 0.41703
0.374683552 0.6028765188 0.38768
0.396819741 0.7224635288 0.4037
0.0386060545 0.5073650519 0.29305
0.0900577369 0.4602340402 0.31571
0.6812526852 0.9876744801 0.3802
0.7210651921 0.9645416335 0.40796
0.6771933381 0.5437464247 0.28201
0.6751809573 0.6850817717 0.29182
0.7473102362 0.0482270817 0.24269
0.7245757719 0.131297653 0.22117
0.9746449778 0.3457235652 0.28728
0.1198627285 0.3395509602 0.29419
0.927944913 0.0304592095 0.38437
0.0176862196 0.1526421748 0.37423
0.3751631484 0.8736255083 0.3587
0.2071565448 0.8538385597 0.33887
0.706943941 0.525690113 0.20966
0.6198132906 0.4040263388 0.19983
0.6781179455 0.7182326223 0.3805
0.7513250962 0.6433537323 0.35898
0.9407707377 0.2065986661 0.43719
0.0244749018 0.2906499316 0.45199
0.2760669905 0.2381539456 0.36796
0.42460245 0.3085331796 0.36624
0.4392972927 0.1133567171 0.27436
0.593815506 0.1337205446 0.27653
0.480227278 0.3676632738 0.45013
0.6081494313 0.4529259852 0.46072
0.4224812919 0.0169982395 0.40904
0.2807988049 0.0534569902 0.40366
0.8507030991 0.5259011745 0.42383
0.9755250982 0.4578871443 0.41496
0.5765298104 0.0090753076 0.31125
0.50658598 0.8769123362 0.31728
0.6640856685 0.7649598186 0.46506
0.6225327241 0.7864197162 0.43537
0.3168584935 0.9628489945 0.21704
0.181539481 0.9064302315 0.20603
0.245816988 0.7254253015 0.4421
0.2481013122 0.565399076 0.4389
0.7592114534 0.9802707393 0.21823
0.6199764566 0.0141335347 0.20938
0.0409447674 0.7630181202 0.27912
0.0539436596 0.6493152757 0.26078
0.9462639934 0.4377160704 0.23222
0.9928206955 0.5574184562 0.21107
0.1889264385 0.5021731411 0.22476
0.2842697782 0.3982772391 0.21437
0.1779597303 0.0556871282 0.441
0.2600322343 0.1804660488 0.44648
0.9304813773 0.4856744027 0.37282
0.9686078354 0.6444314945 0.37248
0.5478570793 0.054726124 0.45968
0.6818163751 0.1271821223 0.47315
0.853293952 0.0686485971 0.33795
0.7948805198 0.9157756708 0.33754
0.5764111314 0.5673407744 0.25873
0.7027016247 0.6602182882 0.26147
0.9783977961 0.1270287486 0.24333
0.1348740015 0.0791477943 0.24532
0.4081869731 0.6866970328 0.21209
0.3574423434 0.670371358 0.23909
0.6507060555 0.4965000372 0.33111
0.6548939832 0.2885928574 0.3373
0.5916943479 0.2904008722 0.26276
0.6970452029 0.3192448206 0.24996
0.593489174 0.1059726663 0.23464
0.5218592948 0.1684486585 0.25263
0.3153455124 0.4895774896 0.27545
0.3248091411 0.4850201458 0.30019
0.4933596314 0.496096222 0.29835
0.5311597575 0.6187406904 0.28864
0.9890035869 0.3284748841 0.31707
0.9896562509 0.3317054063 0.34175
0.8733732731 0.54636207 0.32525
0.9154701042 0.4632914987 0.30756
0.5695581589 0.897777047 0.27107
0.5825026625 0.7522304835 0.26797
0.5123956661 0.9483116445 0.24415
0.6211186187 0.9381008868 0.23185
0.4292897774 0.2932472692 0.32921
0.4061202037 0.3874516046 0.33604
0.4205332014 0.3680684713 0.3182
0.2870634036 0.332475039 0.34741
0.3414520743 0.2514812319 0.34491
0.1855741442 0.2750178938 0.33583
0.218805622 0.2012350739 0.34502
0.3390589728 0.1347209289 0.33172
0.2869002376 0.0945124649 0.31831
0.2538863145 0.0856285288 0.33511
0.592673344 0.2980156746 0.2981
0.5150607109 0.3384548902 0.30587
0.5453552005 0.3579533993 0.28907
0.3950249148 0.3045344069 0.29885
0.3837120714 0.2292517017 0.28819
0.4327162636 0.3802786153 0.27736
0.3442258965 0.3405893424 0.27612
0.4462046539 0.3029768337 0.24546
0.4081869731 0.3832206981 0.25161
0.3538526912 0.2951312797 0.24877
0.9940271479 0.8365321907 0.40933
0.8960187634 0.8360129996 0.41548
0.9433369068 0.9185066919 0.41422
0.940671862 0.7357514351 0.42796
0.9717821816 0.7705372368 0.44351
0.0705520075 0.6851591496 0.43703
0.1044361493 0.7720371221 0.43238
0.1734553723 0.7245599831 0.41594
0.1294005491 0.6658913921 0.40302
0.1512647947 0.6261444312 0.41911
0.301857122 0.6506420973 0.37394
0.2982130811 0.5485345201 0.37626
0.3763696008 0.5898967421 0.36798
0.3050660536 0.5522265455 0.40061
0.2781980503 0.6434887981 0.39454
0.4116678481 0.6146448498 0.41293
0.3362307619 0.6760247719 0.41797
0.474106042 0.8114759534 0.4047
0.5014635433 0.7264439936 0.41362
0.4351093651 0.7849395209 0.42072
0.9428819942 0.5742253242 0.28717
0.9563703845 0.4863089695 0.27853
0.0117924399 0.5577842736 0.27525
0.0303933653 0.6008771325 0.30706
0.0872839147 0.6127608392 0.29385
0.1427059701 0.5661490186 0.31919
0.1695195847 0.5138260963 0.3045
0.1259542596 0.4833091989 0.33434
0.1859449633 0.4259097417 0.32503
0.1016425238 0.3836245133 0.33168
0.6388295221 0.0502081602 0.36454
0.7093716279 0.9853669643 0.36055
0.7346623597 0.0701681725 0.36832
0.793238958 0.9924625756 0.38491
0.7593004275 0.9127379023 0.37725
0.7847543254 0.8817018138 0.39979
0.6854406128 0.8732793809 0.39694
0.6484019281 0.9152184818 0.42013
0.7048029795 0.9742908881 0.42866
0.7395029514 0.8837785781 0.42409
0.6721895804 0.4202366377 0.28448
0.7335400009 0.4496574651 0.27237
0.6415687589 0.4590605922 0.26917
0.7788457635 0.5577645836 0.2895
0.7265238624 0.5132872152 0.30059
0.7652485959 0.6563531991 0.30178
0.6795864396 0.6238172253 0.30958
0.675398512 0.8043803421 0.29498
0.6360211144 0.7472116365 0.30797
0.5913136272 0.7648641329 0.29246
0.7226177797 0.9476193898 0.25155
0.6894950793 0.0313822158 0.26049
0.7815750987 0.0039804649 0.26163
0.8063763325 0.1363741879 0.25065
0.7154384752 0.1517768563 0.24987
0.8287300762 0.1626221809 0.22657
0.7710236966 0.2275210648 0.23148
0.7898965653 0.1520076079 0.2049
0.7282742015 0.2245212941 0.20756
0.6907460187 0.1431236718 0.20212
0.8753856539 0.3812016217 0.2917
0.8821842378 0.2813438724 0.29134
0.8796823589 0.3340129221 0.27599
0.999391823 0.2752866433 0.27114
0.0100520024 0.2297132048 0.288
0.1107798205 0.3488963995 0.27454
0.1321001793 0.2567111405 0.27905
0.2032949492 0.4105070732 0.28893
0.2309243939 0.3090340629 0.29309
0.2126498006 0.3786056663 0.30514
0.9943534799 0.9363702499 0.38911
0.0045241613 0.0200177002 0.39903
0.0392241332 0.0092877514 0.38238
0.9239201514 0.1297400798 0.39659
0.8521814948 0.1128952139 0.38756
0.9287063544 0.2222714661 0.3783
0.9103773724 0.1541420601 0.36617
0.1087872429 0.1796401105 0.36547
0.0484158185 0.2576341469 0.36691
0.032153606 0.1859857791 0.35443
0.3912078063 0.7901511217 0.37404
0.3605869847 0.8819325654 0.38016
0.4509265666 0.8679144065 0.37465
0.2627961549 0.8656645785 0.36203
0.2968434627 0.7828824467 0.35453
0.3171848255 0.8638762537 0.33368
0.2775898733 0.9443508697 0.34191
0.2144446267 0.8952007817 0.31945
0.1540732023 0.9482159588 0.32997
0.1269876443 0.8591458462 0.32324
0.7401754187 0.589377551 0.19545
0.7088475444 0.493269515 0.18995
0.7945097007 0.5060185402 0.19506
0.6979154216 0.460848917 0.22699
0.7527392016 0.4158523576 0.21506
0.5870169222 0.4393313316 0.21735
0.6358579484 0.3495112763 0.21792
0.5168555371 0.3587990277 0.19863
0.5850589301 0.2991497425 0.19295
0.5652070653 0.3888544219 0.18374
0.5866362015 0.6935998904 0.39164
0.5928908986 0.7865927799 0.38851
0.6517394403 0.7381349467 0.4008
0.5964805509 0.729020259 0.36558
0.6307998021 0.6337775414 0.36871
0.7289169639 0.7622484875 0.35989
0.6719176371 0.7111946989 0.34892
0.8469403792 0.6002031855 0.35066
0.8482457073 0.6961958457 0.35583
0.798099353 0.673120687 0.34154
0.872512956 0.1092791843 0.43781
0.8778430457 0.1599291576 0.42252
0.8237807071 0.1918305645 0.43704
0.8947579223 0.3187439373 0.4371
0.9468622688 0.2873040336 0.42277
0.0217010796 0.3790277894 0.43874
0.0537360066 0.2964187213 0.43178
0.0039159843 0.3392808286 0.47123
0.0661366235 0.3952380884 0.45999
0.0872938164 0.3107830076 0.4674
0.2566502351 0.2882847279 0.38722
0.1847484125 0.2310006464 0.38126
0.2082987069 0.3188016252 0.37304
0.3624361995 0.1705437306 0.36521
0.328660835 0.1655248836 0.38123
0.4443455375 0.2330774107 0.38163
0.3741841524 0.301610632 0.38508
0.4471737484 0.4102369416 0.37783
0.4867687006 0.4031413303 0.36122
0.5163561374 0.349087771 0.37622
0.3452592812 0.1557573212 0.26584
0.3480331034 0.0583224636 0.27072
0.3815365245 0.0999154372 0.25514
0.5009740453 0.0301130821 0.26341
0.4623037004 0.9951542167 0.27703
0.592673344 0.0191523817 0.28196
0.5463885852 0.0814553102 0.29272
0.6473883466 0.1597377861 0.29352
0.6694701469 0.2155219822 0.27987
0.7010699645 0.1138759082 0.28158
0.3846663837 0.2990723645 0.45173
0.3916825222 0.3568179492 0.43827
0.3713411594 0.4040066487 0.45342
0.4850678697 0.3269356187 0.47059
0.4794658366 0.4201592598 0.46792
0.6156006792 0.3359926185 0.45708
0.6148392378 0.3624713631 0.47362
0.6975100172 0.5290740089 0.45852
0.7237797451 0.4379848199 0.45822
0.6976187945 0.4855196468 0.47334
0.4991693175 0.1005880019 0.40278
0.5126033191 0.0059798512 0.3965
0.5354465608 0.0293434494 0.4127
0.3845723885 0.1259706765 0.41481
0.405947136 0.0608987289 0.42834
0.2712263988 0.0734170025 0.42397
0.3007050583 0.9778858455 0.42015
0.1683774227 0.0491880859 0.40645
0.2028598398 0.9660021388 0.40175
0.2015001231 0.0436500478 0.38972
0.803983231 0.5670903328 0.4399
0.7839682002 0.4646366282 0.43755
0.7403484864 0.5385348239 0.42911
0.8001216354 0.4969995383 0.40694
0.840641195 0.4160634191 0.41662
0.9282069548 0.539630894 0.40235
0.9242909705 0.4472148834 0.39658
0.082725168 0.4455996223 0.41737
0.0494393016 0.5253242956 0.40664
0.0572712702 0.4262741769 0.40116
0.6883529172 0.007748486 0.3161
0.6632253514 0.9928073207 0.29879
0.6504440138 0.918909125 0.31067
0.5032138824 0.0324389058 0.32442
0.5898550347 0.0241895366 0.33135
0.4786845919 0.9181591824 0.33432
0.5735384335 0.8901805524 0.33465
0.4484988797 0.7919957522 0.32783
0.5374243562 0.7682860266 0.32431
0.4698736273 0.767536084 0.31099
0.6603872389 0.8283588172 0.48195
0.7486056627 0.7928230728 0.47755
0.679858383 0.730116329 0.48354
0.7257080323 0.8178019321 0.45054
0.6789337756 0.8849506439 0.46032
0.5871800882 0.8831046312 0.4445
0.5617261904 0.7935153275 0.45182
0.6622908424 0.687081158 0.44577
0.6598977409 0.6791202283 0.42759
0.5816324438 0.6748513239 0.43738
0.4194355263 0.9580032112 0.22583
0.3434545534 0.9679255294 0.23658
0.3704857228 0.0471886995 0.22764
0.2632856529 0.8787977289 0.2276
0.3416597273 0.8511652264 0.2185
0.2300541752 0.8017266989 0.20647
0.2791671448 0.8621836147 0.19787
0.1583699073 0.8652987611 0.18749
0.1024583538 0.9413890969 0.193
0.0883172995 0.8489730863 0.19947
0.2423905018 0.8343400506 0.4509
0.2429887771 0.8295519552 0.43386
0.3255507792 0.8189373822 0.44275
0.2875330984 0.7035615887 0.46214
0.3387128375 0.6699295449 0.44986
0.1988251766 0.5918201327 0.45735
0.2889472038 0.561476299 0.45865
0.1660831969 0.4928853898 0.44491
0.2489171422 0.4482349577 0.44375
0.2077993072 0.4744829507 0.42879
0.8333432115 0.8926428242 0.22181
0.8408488481 0.9700022937 0.23298
0.8748961559 0.9754826439 0.21623
0.7171146224 0.8767209647 0.21091
0.7752561113 0.9334858551 0.19983
0.6372720539 0.9273132501 0.19575
0.6857323594 0.0185755028 0.19369
0.5243611736 0.0604569158 0.2124
0.5212066307 0.9936543314 0.19928
0.5623244657 0.0853780872 0.19631
0.9699131635 0.8243403544 0.29013
0.0285985391 0.8854318371 0.28093
0.0542699917 0.8415313476 0.29593
0.1573365225 0.7789976676 0.27808
0.1150221368 0.8065147943 0.26425
0.1296526892 0.6446425561 0.27553
0.1642438837 0.6767747146 0.2601
0.1047970667 0.6237595374 0.24341
0.0163610882 0.5836664492 0.24516
0.0848364246 0.535150928 0.25317
0.8897541646 0.388796734 0.24818
0.9805288559 0.3590874672 0.24766
0.9159695039 0.3271283724 0.23639
0.0226800757 0.3714326771 0.22272
0.054986946 0.4573299553 0.23082
0.9591541084 0.4511573504 0.20599
0.0547693913 0.4677714647 0.20584
0.9482219856 0.5650909465 0.19061
0.0388335108 0.5823973155 0.19256
0.9742197701 0.6503536578 0.19885
0.1259987466 0.5884165468 0.2139
0.2155768871 0.5735907573 0.20816
0.2030674929 0.6180104378 0.22253
0.2590878237 0.4526192378 0.23777
0.2787765224 0.5489580254 0.23415
0.3696599911 0.4561381995 0.22339
0.3151625431 0.5077111792 0.21078
0.3238647304 0.403353774 0.19564
0.2954194556 0.3114569545 0.20172
0.3799938385 0.3503962848 0.20614
0.1496232329 0.9980569193 0.45827
0.1771982889 0.9371385004 0.44514
0.0918624647 0.9802890471 0.44494
0.1225920636 0.1302775787 0.45447
0.0876745371 0.1353541136 0.43815
0.1669188302 0.246287939 0.44681
0.1957448256 0.2100599399 0.43155
0.2477947834 0.2179054938 0.46555
0.319043942 0.1477570114 0.46356
0.2296289674 0.1168362987 0.46356
0.8884389349 0.3947005895 0.36101
0.8246954129 0.4723484985 0.36283
0.8482457073 0.4139106591 0.37606
0.9507139628 0.5426700447 0.35467
0.0178295823 0.4735022565 0.35982
0.0619387942 0.6020308904 0.3642
0.0442080876 0.5615916748 0.37984
0.0305021426 0.7192526966 0.38367
0.981552339 0.6451814372 0.39241
0.9315691507 0.7246753589 0.3849
0.6164955817 0.9968651635 0.47325
0.5311597575 0.950772534 0.46967
0.5360547378 0.0358044938 0.4797
0.5274613279 0.1537762427 0.46902
0.5371425112 0.1613910451 0.45257
0.6519026063 0.2084643688 0.45922
0.6596257975 0.1214710205 0.45169
0.7858619021 0.1185289378 0.47893
0.7808037557 0.1685443442 0.46368
0.7711225723 0.0659752638 0.46505
0.9617449613 0.1160103603 0.33313
0.8887553653 0.113414405 0.32145
0.9364542294 0.0298823305 0.32454
0.8385546223 0.0147104137 0.35662
0.931232917 0.0261903051 0.35186
0.8667823423 0.8940850216 0.35389
0.9055614645 0.91058376 0.33769
0.8100549589 0.8339165453 0.32236
0.7240120819 0.8383008254 0.33054
0.793683969 0.7994768709 0.33951
0.4741604306 0.6048955952 0.2617
0.4879207643 0.5107489477 0.26651
0.4857996061 0.5299013294 0.24853
0.5766830748 0.6530073011 0.24443
0.5993087618 0.5616873605 0.23743
0.7095002085 0.6616604856 0.24088
0.7203779426 0.5682060929 0.24784
0.79412898 0.7292707006 0.25666
0.8183319384 0.6409505307 0.2658
0.7722103457 0.7201560129 0.273
0.0075501236 0.0105568851 0.24766
0.926402227 0.0467271964 0.25381
0.0127170473 0.0822052529 0.2607
0.0486679586 0.2038113392 0.25237
0.0204402385 0.2200793261 0.23497
0.1510274367 0.1881202313 0.23666
0.1011530258 0.117337182 0.22719
0.2423460147 0.0612068584 0.23882
0.1755023385 0.0220944645 0.22893
0.2032405605 0.9734058796 0.2436
0.4306494941 0.5834356976 0.20203
0.4805782938 0.6647179441 0.1957
0.3853437315 0.6557186322 0.19333
0.5089147912 0.677640033 0.2208
0.4511540229 0.6024150157 0.22559
0.4137346175 0.7716136168 0.23311
0.4666004054 0.7102336947 0.24303
0.283364974 0.6542187469 0.25374
0.3185000553 0.7505575345 0.25288
0.369734183 0.6821396889 0.26012
0.638577382 0.6167793019 0.33055
0.5969156603 0.5699367298 0.34421
0.5583540928 0.566475456 0.32809
0.5643912352 0.4226018415 0.33128
0.6236204975 0.4186790645 0.34587
0.7239675949 0.3683752186 0.33161
0.6552203152 0.3510111616 0.3188
0.7544796391 0.2386351388 0.33928
0.7086843784 0.2183289991 0.32415
0.6883974043 0.1695827264 0.33937
0.6009948106 0.246961886 0.2385
0.4030744381 0.5801474875 0.28631
0.8970323448 0.4084303089 0.3304
0.5969700489 0.8384162012 0.24848
0.6226415015 0.3023422668 0.24964
0.5544924972 0.1740443845 0.2396
0.3344359358 0.5278822531 0.28785
0.4761184228 0.5730518762 0.29497
0.9500612987 0.3359166227 0.32942
0.8771804801 0.4695217916 0.31988
0.597296381 0.8298783925 0.26387
0.5670562801 0.901699824 0.23938
0.5860379261 0.3781441631 0.24415
0.4908577525 0.1901969956 0.23034
0.2760768922 0.5964731623 0.28975
0.4649143566 0.6157409198 0.30868
0.9001324991 0.2656527645 0.33045
0.7994590697 0.4455236265 0.31566
0.6819795411 0.83241666 0.26703
0.529092988 0.84914615 0.22838
